&PROJWFC
prefix='WTe2',
outdir='./',
ngauss=0,
degauss=0.01,
DeltaE=0.005
lsym=.true.
filpdos='WTe2',
filproj='WTe2',
/
