&CONTROL
  calculation = 'bands'
  etot_conv_thr =   1.2000000000d-04
  forc_conv_thr =   1.0000000000d-04
  outdir = './'
  prefix = 'WTe2'
  pseudo_dir = '../../pseudo/'
  tprnfor = .true.
  tstress = .true.
  verbosity = 'high'
/
&SYSTEM
  degauss =   7.3498618000d-03
  ecutrho =   640 
  ecutwfc =   80 
  ibrav = 0
  nat = 6 
  nosym = .false.
  ntyp = 2
  occupations = 'smearing'
  smearing = 'cold'
  noncolin = .true.
  lspinorb = .true.
/
&ELECTRONS
  conv_thr =   2.4000000000d-09
  electron_maxstep = 80
  mixing_beta =   4.0000000000d-01
/
ATOMIC_SPECIES
Te     127.6    Te_ONCV_PBE_FR-1.1.upf 
W      183.84    W_ONCV_PBE_FR-1.0.upf 
ATOMIC_POSITIONS crystal
W       0.821873 0.750000 0.495163 
W       0.178127 0.250000 0.504838
Te      0.081802 0.750000 0.603508 
Te      0.572013 0.250000 0.573093 
Te      0.427987 0.750000 0.426907 
Te      0.918198 0.250000 0.396492 
CELL_PARAMETERS angstrom
      6.3147690000       0.0000000000       0.0000000000
      0.0000000000       3.4924850000       0.0000000000
      0.0000000000       0.0000000000      20.1600000000
K_POINTS crystal_b
3
0.000000000  -0.500000000  0.000000000 60
0.000000000   0.000000000  0.000000000 60
0.000000000   0.500000000  0.000000000 30

