&BANDS
prefix = 'WTe2'
outdir = './'
filband = 'WTe2_bands.dat' 
lsigma(1) = .true.
lsigma(2) = .true.
lsigma(3) = .true.
lsym = .false.
/

